80
2521
4
34
54
85
73
0 1
0 4
0 5
0 6
0 7
0 8
0 9
0 10
0 11
0 12
0 13
0 14
0 15
0 16
0 17
0 18
0 19
0 20
0 21
0 22
0 23
0 24
0 25
0 26
0 27
0 29
0 30
0 31
0 32
0 33
0 34
0 35
0 36
0 37
0 38
0 41
0 42
0 43
0 44
0 46
0 47
0 48
0 49
0 51
0 52
0 53
0 54
0 55
0 56
0 57
0 58
0 59
0 61
0 63
0 64
0 66
0 67
0 68
0 69
0 70
0 73
0 74
0 75
0 77
0 79
1 2
1 4
1 5
1 6
1 7
1 8
1 9
1 10
1 11
1 12
1 14
1 15
1 16
1 17
1 18
1 19
1 20
1 21
1 22
1 23
1 24
1 25
1 26
1 27
1 29
1 30
1 31
1 32
1 33
1 34
1 35
1 36
1 37
1 38
1 43
1 44
1 45
1 46
1 47
1 48
1 49
1 51
1 53
1 54
1 56
1 57
1 58
1 59
1 60
1 62
1 63
1 64
1 65
1 66
1 67
1 68
1 69
1 72
1 74
1 76
1 77
1 78
1 79
2 3
2 4
2 5
2 6
2 7
2 8
2 9
2 11
2 13
2 15
2 16
2 18
2 19
2 20
2 21
2 23
2 25
2 26
2 28
2 30
2 31
2 32
2 33
2 34
2 36
2 38
2 39
2 40
2 43
2 44
2 45
2 46
2 47
2 48
2 49
2 50
2 52
2 53
2 54
2 55
2 56
2 57
2 58
2 59
2 61
2 62
2 64
2 65
2 68
2 69
2 70
2 71
2 72
2 73
2 75
2 76
2 77
2 78
2 79
3 4
3 5
3 6
3 7
3 9
3 10
3 11
3 12
3 14
3 15
3 17
3 18
3 20
3 21
3 22
3 23
3 25
3 26
3 27
3 28
3 31
3 32
3 34
3 35
3 37
3 38
3 39
3 42
3 43
3 44
3 45
3 46
3 47
3 49
3 50
3 51
3 52
3 53
3 54
3 55
3 56
3 57
3 59
3 60
3 61
3 62
3 63
3 64
3 65
3 66
3 67
3 68
3 69
3 70
3 71
3 72
3 74
3 75
3 76
3 78
4 5
4 6
4 8
4 9
4 10
4 11
4 12
4 13
4 14
4 15
4 17
4 18
4 19
4 20
4 21
4 22
4 23
4 24
4 25
4 26
4 27
4 28
4 29
4 30
4 32
4 33
4 34
4 36
4 37
4 38
4 39
4 40
4 41
4 42
4 43
4 44
4 45
4 46
4 47
4 48
4 49
4 50
4 51
4 52
4 53
4 54
4 55
4 57
4 58
4 59
4 60
4 61
4 62
4 63
4 64
4 65
4 66
4 67
4 68
4 69
4 70
4 71
4 72
4 74
4 75
4 76
4 77
4 78
5 6
5 7
5 8
5 9
5 12
5 13
5 14
5 15
5 16
5 17
5 18
5 19
5 20
5 21
5 22
5 23
5 24
5 25
5 26
5 27
5 28
5 29
5 30
5 31
5 32
5 33
5 34
5 35
5 36
5 37
5 38
5 39
5 40
5 41
5 45
5 46
5 47
5 48
5 49
5 50
5 51
5 52
5 53
5 54
5 55
5 57
5 58
5 59
5 60
5 61
5 62
5 63
5 64
5 66
5 67
5 68
5 70
5 71
5 72
5 73
5 74
5 75
5 78
5 79
6 7
6 8
6 9
6 10
6 12
6 15
6 16
6 17
6 18
6 19
6 20
6 21
6 22
6 23
6 24
6 25
6 26
6 27
6 28
6 30
6 31
6 34
6 35
6 36
6 37
6 40
6 41
6 42
6 43
6 44
6 45
6 46
6 47
6 49
6 50
6 51
6 52
6 53
6 54
6 55
6 56
6 57
6 58
6 59
6 60
6 62
6 63
6 64
6 67
6 68
6 69
6 72
6 73
6 74
6 75
6 76
6 77
6 79
7 9
7 10
7 12
7 13
7 14
7 15
7 16
7 17
7 18
7 19
7 20
7 21
7 22
7 23
7 25
7 26
7 28
7 29
7 30
7 31
7 32
7 33
7 34
7 36
7 37
7 38
7 39
7 42
7 43
7 45
7 47
7 48
7 49
7 51
7 52
7 54
7 55
7 57
7 58
7 60
7 62
7 64
7 68
7 69
7 70
7 71
7 72
7 73
7 74
7 75
7 76
7 77
7 78
7 79
8 9
8 11
8 12
8 13
8 15
8 16
8 17
8 19
8 20
8 21
8 22
8 23
8 24
8 25
8 27
8 29
8 30
8 31
8 32
8 33
8 34
8 35
8 37
8 38
8 39
8 40
8 41
8 42
8 43
8 44
8 45
8 46
8 48
8 49
8 50
8 51
8 53
8 54
8 55
8 56
8 57
8 58
8 61
8 62
8 63
8 64
8 65
8 66
8 67
8 68
8 69
8 76
8 77
8 78
8 79
9 10
9 11
9 12
9 13
9 14
9 15
9 16
9 17
9 18
9 19
9 20
9 21
9 22
9 23
9 24
9 25
9 26
9 27
9 28
9 29
9 31
9 32
9 33
9 34
9 35
9 36
9 37
9 39
9 40
9 41
9 42
9 43
9 44
9 45
9 46
9 47
9 48
9 49
9 50
9 51
9 52
9 54
9 56
9 58
9 59
9 60
9 61
9 62
9 63
9 64
9 65
9 66
9 68
9 69
9 70
9 72
9 73
9 74
9 75
9 77
9 78
9 79
10 11
10 12
10 13
10 14
10 15
10 16
10 17
10 18
10 19
10 20
10 21
10 23
10 24
10 26
10 27
10 28
10 29
10 30
10 31
10 32
10 33
10 34
10 35
10 36
10 37
10 38
10 39
10 41
10 42
10 43
10 44
10 45
10 46
10 47
10 49
10 50
10 51
10 52
10 53
10 54
10 55
10 57
10 58
10 60
10 62
10 63
10 64
10 65
10 66
10 68
10 69
10 71
10 72
10 73
10 74
10 75
10 76
10 77
10 78
10 79
11 12
11 14
11 15
11 16
11 17
11 18
11 20
11 21
11 22
11 23
11 24
11 25
11 26
11 27
11 28
11 29
11 30
11 32
11 33
11 34
11 35
11 36
11 37
11 38
11 39
11 40
11 41
11 42
11 43
11 44
11 45
11 46
11 49
11 50
11 52
11 53
11 54
11 56
11 57
11 59
11 60
11 61
11 62
11 63
11 65
11 66
11 67
11 69
11 70
11 71
11 73
11 74
11 75
11 76
11 77
11 78
11 79
12 14
12 15
12 16
12 17
12 19
12 21
12 22
12 23
12 24
12 26
12 27
12 28
12 29
12 30
12 31
12 32
12 33
12 34
12 35
12 36
12 37
12 38
12 39
12 40
12 42
12 43
12 44
12 45
12 46
12 47
12 48
12 49
12 50
12 51
12 52
12 53
12 54
12 55
12 57
12 58
12 59
12 60
12 61
12 62
12 63
12 64
12 65
12 66
12 67
12 70
12 72
12 74
12 76
12 77
12 78
12 79
13 15
13 16
13 17
13 18
13 19
13 20
13 21
13 22
13 23
13 24
13 25
13 26
13 27
13 29
13 30
13 32
13 33
13 34
13 35
13 36
13 37
13 38
13 39
13 40
13 41
13 42
13 43
13 44
13 46
13 47
13 48
13 49
13 50
13 51
13 52
13 53
13 54
13 55
13 56
13 57
13 58
13 59
13 60
13 61
13 62
13 64
13 65
13 66
13 67
13 68
13 69
13 70
13 71
13 74
13 75
13 76
13 77
13 79
14 15
14 16
14 18
14 19
14 21
14 22
14 23
14 24
14 25
14 27
14 30
14 31
14 32
14 33
14 34
14 35
14 36
14 37
14 38
14 39
14 41
14 42
14 44
14 46
14 47
14 48
14 49
14 50
14 51
14 53
14 55
14 56
14 57
14 58
14 60
14 61
14 62
14 63
14 64
14 65
14 66
14 67
14 68
14 71
14 72
14 73
14 74
14 75
14 76
14 77
15 18
15 19
15 20
15 21
15 22
15 23
15 24
15 25
15 26
15 27
15 28
15 29
15 31
15 32
15 34
15 35
15 37
15 38
15 39
15 40
15 41
15 42
15 43
15 44
15 46
15 47
15 48
15 50
15 51
15 52
15 54
15 55
15 56
15 58
15 59
15 60
15 61
15 62
15 63
15 64
15 65
15 67
15 68
15 69
15 70
15 71
15 72
15 75
15 76
15 77
15 78
15 79
16 17
16 18
16 20
16 22
16 23
16 24
16 26
16 27
16 30
16 31
16 32
16 33
16 35
16 36
16 37
16 38
16 39
16 42
16 43
16 45
16 46
16 47
16 48
16 49
16 50
16 51
16 52
16 54
16 55
16 58
16 60
16 61
16 62
16 64
16 65
16 66
16 67
16 68
16 69
16 70
16 71
16 72
16 73
16 74
16 75
16 76
16 77
16 78
16 79
17 18
17 19
17 20
17 21
17 22
17 24
17 25
17 26
17 27
17 28
17 31
17 32
17 34
17 35
17 36
17 37
17 38
17 39
17 40
17 42
17 44
17 46
17 48
17 49
17 50
17 51
17 52
17 53
17 54
17 55
17 56
17 58
17 59
17 60
17 61
17 63
17 64
17 65
17 66
17 68
17 69
17 70
17 73
17 74
17 76
17 79
18 19
18 20
18 22
18 23
18 24
18 26
18 27
18 28
18 29
18 30
18 31
18 32
18 34
18 35
18 36
18 37
18 38
18 40
18 41
18 42
18 43
18 44
18 45
18 46
18 47
18 48
18 50
18 51
18 52
18 53
18 54
18 55
18 56
18 57
18 58
18 59
18 60
18 61
18 62
18 65
18 66
18 67
18 68
18 71
18 74
18 75
18 76
18 78
18 79
19 20
19 21
19 22
19 23
19 25
19 26
19 27
19 29
19 30
19 31
19 32
19 33
19 35
19 36
19 37
19 40
19 41
19 42
19 43
19 44
19 45
19 47
19 48
19 49
19 50
19 51
19 52
19 53
19 54
19 55
19 56
19 57
19 58
19 61
19 62
19 63
19 65
19 66
19 67
19 68
19 69
19 70
19 71
19 73
19 74
19 75
19 78
20 22
20 23
20 24
20 25
20 27
20 28
20 29
20 30
20 31
20 32
20 33
20 34
20 35
20 38
20 39
20 40
20 41
20 42
20 43
20 45
20 46
20 48
20 50
20 51
20 52
20 54
20 55
20 56
20 57
20 58
20 59
20 62
20 63
20 64
20 65
20 66
20 67
20 69
20 70
20 71
20 73
20 75
20 76
20 78
20 79
21 22
21 26
21 27
21 28
21 29
21 30
21 31
21 32
21 33
21 34
21 35
21 36
21 37
21 38
21 39
21 41
21 42
21 43
21 45
21 46
21 47
21 48
21 49
21 50
21 51
21 52
21 53
21 55
21 58
21 59
21 60
21 61
21 62
21 63
21 64
21 65
21 66
21 67
21 68
21 69
21 70
21 71
21 72
21 74
21 75
21 76
21 77
21 78
21 79
22 23
22 24
22 25
22 28
22 29
22 30
22 32
22 33
22 35
22 36
22 37
22 38
22 39
22 40
22 41
22 45
22 47
22 51
22 52
22 53
22 54
22 55
22 56
22 57
22 58
22 59
22 60
22 61
22 62
22 63
22 64
22 65
22 66
22 67
22 68
22 69
22 70
22 71
22 72
22 73
22 74
22 75
22 76
22 77
22 78
22 79
23 24
23 25
23 26
23 27
23 28
23 29
23 31
23 32
23 33
23 34
23 35
23 36
23 37
23 38
23 40
23 41
23 42
23 43
23 44
23 45
23 47
23 48
23 49
23 51
23 52
23 53
23 54
23 55
23 57
23 58
23 59
23 61
23 62
23 63
23 65
23 66
23 68
23 70
23 71
23 72
23 75
23 77
23 79
24 25
24 26
24 27
24 28
24 29
24 30
24 33
24 34
24 35
24 36
24 37
24 38
24 39
24 41
24 42
24 45
24 46
24 48
24 49
24 50
24 51
24 52
24 56
24 57
24 58
24 59
24 60
24 63
24 64
24 66
24 68
24 70
24 71
24 72
24 73
24 74
24 75
24 76
24 78
24 79
25 26
25 27
25 28
25 30
25 31
25 32
25 33
25 34
25 35
25 37
25 38
25 39
25 40
25 41
25 42
25 43
25 45
25 46
25 47
25 48
25 51
25 52
25 54
25 56
25 57
25 58
25 59
25 60
25 61
25 62
25 63
25 66
25 67
25 69
25 70
25 71
25 73
25 74
25 75
25 76
25 77
25 78
25 79
26 27
26 28
26 29
26 30
26 32
26 33
26 34
26 36
26 37
26 39
26 40
26 41
26 42
26 43
26 44
26 45
26 47
26 48
26 50
26 51
26 52
26 54
26 55
26 56
26 57
26 58
26 59
26 60
26 61
26 63
26 64
26 65
26 66
26 67
26 68
26 69
26 70
26 71
26 72
26 73
26 76
26 77
26 79
27 28
27 29
27 30
27 31
27 32
27 33
27 35
27 36
27 38
27 39
27 40
27 41
27 43
27 44
27 45
27 46
27 48
27 49
27 50
27 51
27 54
27 56
27 57
27 58
27 59
27 61
27 62
27 63
27 65
27 66
27 67
27 68
27 69
27 71
27 73
27 74
27 77
27 78
28 29
28 31
28 32
28 34
28 35
28 36
28 38
28 39
28 40
28 41
28 42
28 43
28 44
28 45
28 46
28 47
28 50
28 51
28 52
28 53
28 54
28 55
28 56
28 57
28 59
28 61
28 62
28 63
28 64
28 66
28 67
28 68
28 69
28 71
28 72
28 73
28 74
28 75
28 76
28 77
28 78
28 79
29 30
29 31
29 32
29 33
29 34
29 37
29 39
29 40
29 42
29 43
29 44
29 46
29 47
29 48
29 49
29 52
29 53
29 54
29 55
29 56
29 57
29 58
29 59
29 60
29 61
29 62
29 63
29 64
29 65
29 66
29 67
29 68
29 70
29 71
29 72
29 73
29 74
29 75
29 76
29 77
29 78
29 79
30 32
30 33
30 34
30 35
30 36
30 37
30 38
30 39
30 40
30 41
30 42
30 43
30 44
30 45
30 46
30 48
30 49
30 50
30 51
30 52
30 53
30 54
30 55
30 56
30 57
30 59
30 61
30 62
30 63
30 65
30 66
30 67
30 68
30 69
30 72
30 73
30 75
30 76
30 77
30 78
31 32
31 33
31 34
31 35
31 37
31 38
31 39
31 40
31 41
31 45
31 49
31 50
31 52
31 53
31 54
31 59
31 60
31 61
31 63
31 64
31 65
31 68
31 70
31 71
31 72
31 73
31 74
31 75
31 76
31 77
31 78
31 79
32 33
32 34
32 35
32 36
32 37
32 38
32 39
32 40
32 41
32 42
32 44
32 45
32 46
32 47
32 48
32 49
32 50
32 51
32 52
32 53
32 54
32 55
32 57
32 58
32 59
32 60
32 61
32 62
32 63
32 64
32 65
32 66
32 67
32 68
32 69
32 70
32 71
32 72
32 73
32 74
32 76
32 78
32 79
33 34
33 35
33 36
33 37
33 38
33 39
33 40
33 41
33 42
33 43
33 44
33 45
33 46
33 47
33 49
33 50
33 51
33 52
33 53
33 55
33 56
33 57
33 58
33 59
33 60
33 61
33 63
33 64
33 65
33 66
33 67
33 69
33 70
33 71
33 72
33 73
33 74
33 75
33 76
33 77
33 78
33 79
34 36
34 37
34 39
34 40
34 41
34 42
34 46
34 48
34 49
34 51
34 52
34 53
34 55
34 56
34 57
34 58
34 59
34 60
34 62
34 63
34 64
34 65
34 66
34 67
34 68
34 69
34 70
34 73
34 74
34 75
34 76
34 79
35 36
35 37
35 38
35 40
35 43
35 44
35 45
35 48
35 49
35 50
35 51
35 52
35 53
35 54
35 57
35 58
35 59
35 60
35 61
35 62
35 63
35 64
35 66
35 67
35 68
35 69
35 70
35 72
35 73
35 74
35 77
35 78
35 79
36 38
36 40
36 41
36 43
36 44
36 45
36 46
36 47
36 48
36 49
36 50
36 51
36 52
36 53
36 54
36 56
36 57
36 58
36 59
36 60
36 61
36 62
36 63
36 64
36 65
36 66
36 67
36 69
36 70
36 73
36 74
36 75
36 76
36 77
36 79
37 39
37 40
37 41
37 42
37 43
37 44
37 45
37 46
37 47
37 48
37 49
37 50
37 51
37 53
37 55
37 56
37 57
37 58
37 61
37 62
37 63
37 64
37 66
37 67
37 69
37 71
37 72
37 73
37 74
37 75
37 76
37 77
37 78
37 79
38 39
38 40
38 42
38 44
38 46
38 47
38 48
38 49
38 51
38 52
38 53
38 54
38 55
38 56
38 57
38 58
38 59
38 60
38 61
38 62
38 66
38 67
38 68
38 70
38 72
38 73
38 75
38 76
38 77
38 79
39 40
39 41
39 42
39 43
39 44
39 45
39 48
39 49
39 50
39 51
39 53
39 54
39 55
39 56
39 57
39 60
39 61
39 63
39 64
39 65
39 66
39 67
39 69
39 70
39 71
39 72
39 73
39 74
39 75
39 77
39 78
40 42
40 44
40 45
40 46
40 47
40 48
40 49
40 51
40 52
40 56
40 57
40 58
40 59
40 60
40 62
40 63
40 64
40 65
40 66
40 67
40 71
40 72
40 73
40 74
40 75
40 76
40 77
40 79
41 42
41 45
41 46
41 47
41 51
41 52
41 53
41 54
41 55
41 56
41 57
41 58
41 59
41 60
41 61
41 62
41 64
41 66
41 67
41 69
41 70
41 71
41 72
41 74
41 75
41 78
42 43
42 44
42 45
42 48
42 49
42 51
42 52
42 53
42 56
42 57
42 58
42 60
42 61
42 62
42 65
42 67
42 68
42 69
42 71
42 72
42 74
42 75
42 76
42 77
42 79
43 44
43 45
43 46
43 47
43 48
43 49
43 50
43 51
43 52
43 53
43 54
43 55
43 57
43 58
43 59
43 60
43 61
43 62
43 64
43 65
43 66
43 67
43 69
43 70
43 71
43 72
43 73
43 74
43 76
43 77
44 45
44 47
44 48
44 49
44 51
44 52
44 54
44 55
44 56
44 57
44 58
44 59
44 60
44 61
44 62
44 63
44 64
44 65
44 67
44 68
44 69
44 70
44 71
44 73
44 74
44 75
44 76
44 77
44 79
45 46
45 47
45 49
45 50
45 51
45 53
45 54
45 55
45 56
45 57
45 58
45 59
45 61
45 63
45 64
45 65
45 66
45 67
45 68
45 69
45 71
45 72
45 73
45 74
45 75
45 77
45 78
45 79
46 47
46 48
46 49
46 50
46 51
46 52
46 53
46 54
46 56
46 57
46 58
46 59
46 60
46 61
46 62
46 66
46 67
46 68
46 70
46 72
46 73
46 74
46 75
46 76
46 77
47 50
47 51
47 52
47 53
47 54
47 55
47 56
47 57
47 58
47 59
47 60
47 62
47 64
47 65
47 67
47 68
47 70
47 71
47 72
47 73
47 74
47 75
47 76
47 77
47 78
47 79
48 49
48 50
48 51
48 52
48 53
48 55
48 56
48 57
48 58
48 60
48 61
48 62
48 63
48 64
48 65
48 66
48 67
48 68
48 69
48 70
48 71
48 72
48 73
48 75
48 76
48 77
49 51
49 52
49 55
49 56
49 57
49 58
49 60
49 62
49 64
49 66
49 67
49 69
49 71
49 72
49 73
49 74
49 77
49 79
50 52
50 54
50 55
50 57
50 58
50 59
50 60
50 61
50 62
50 64
50 65
50 67
50 68
50 69
50 72
50 73
50 74
50 75
50 76
50 77
50 78
50 79
51 52
51 55
51 56
51 57
51 58
51 59
51 60
51 61
51 62
51 63
51 64
51 65
51 66
51 67
51 68
51 69
51 70
51 71
51 72
51 74
51 75
51 76
51 77
51 78
51 79
52 53
52 55
52 56
52 59
52 60
52 61
52 62
52 64
52 65
52 66
52 69
52 70
52 71
52 72
52 74
52 75
52 76
52 77
52 78
53 54
53 56
53 57
53 58
53 59
53 60
53 61
53 63
53 64
53 65
53 66
53 67
53 68
53 69
53 70
53 71
53 72
53 73
53 74
53 77
53 78
53 79
54 55
54 57
54 58
54 60
54 61
54 62
54 63
54 65
54 66
54 68
54 72
54 74
54 75
54 76
54 77
54 78
54 79
55 57
55 59
55 60
55 61
55 62
55 63
55 64
55 65
55 66
55 68
55 69
55 70
55 71
55 72
55 74
55 77
55 78
56 58
56 60
56 61
56 63
56 64
56 65
56 67
56 68
56 69
56 72
56 73
56 74
56 75
56 77
56 78
56 79
57 58
57 59
57 61
57 62
57 63
57 64
57 65
57 66
57 68
57 69
57 71
57 73
57 74
57 75
57 77
57 78
57 79
58 59
58 60
58 61
58 62
58 63
58 64
58 65
58 66
58 67
58 68
58 69
58 70
58 71
58 72
58 73
58 75
58 77
58 78
58 79
59 60
59 61
59 64
59 65
59 66
59 67
59 69
59 70
59 71
59 72
59 73
59 74
59 75
59 76
59 77
59 78
60 61
60 62
60 63
60 64
60 66
60 67
60 68
60 70
60 71
60 72
60 74
60 75
60 76
60 77
60 79
61 62
61 64
61 65
61 66
61 67
61 68
61 69
61 73
61 74
61 75
61 76
61 78
61 79
62 63
62 64
62 65
62 66
62 67
62 68
62 69
62 70
62 71
62 73
62 74
62 75
62 76
62 77
62 78
62 79
63 65
63 66
63 67
63 68
63 69
63 70
63 72
63 73
63 74
63 75
63 76
63 77
63 79
64 66
64 67
64 69
64 72
64 73
64 74
64 75
64 76
64 77
64 78
64 79
65 66
65 67
65 68
65 69
65 70
65 72
65 74
65 75
65 76
65 77
65 78
65 79
66 67
66 68
66 69
66 70
66 71
66 72
66 73
66 74
66 75
66 76
66 77
66 78
67 68
67 69
67 71
67 72
67 73
67 74
67 75
67 78
67 79
68 69
68 70
68 71
68 72
68 73
68 74
68 75
68 78
68 79
69 70
69 71
69 72
69 73
69 77
69 78
69 79
70 71
70 72
70 74
70 75
70 76
70 79
71 72
71 73
71 74
71 75
71 77
71 78
71 79
72 73
72 74
72 76
72 77
72 78
72 79
73 74
73 75
73 76
73 78
73 79
74 75
74 76
74 77
74 78
74 79
75 76
75 77
75 78
75 79
76 77
76 78
76 79
77 79
78 79
12 57 6 77 65 40 11 4 26 7 78 73 47 49 39 2 68 72 53 9
52 13 23 20 56 27 22 0 67 45 1 61 34 44 76 54 74 24 33 64
70 5 51 42 14 63 66 29 48 17 71 30 19 60 43 50 3 16 36 25
35 55 41 32 28 79 15 31 69 37 59 8 58 46 21 75 38 62 10 18
